144
# Au\(6\6\1)-OPT-C (z-shifted by 8.857240) ; reordered surface->bottom (freeze-safe for NRGD=bottom)
Au  8.6678504808  5.0043858101  0.0000000000
Au  11.5571339921  10.0087716508  0.0000000000
Au  14.4464175034  15.0131574916  0.0000000000
Au  14.4464175034  5.0043858101  0.0000000000
Au  17.3357010147  10.0087716508  0.0000000000
Au  20.2249845260  15.0131574916  0.0000000000
Au  20.2249845260  5.0043858101  0.0000000000
Au  23.1142680374  10.0087716508  0.0000000000
Au  26.0035515487  15.0131574916  0.0000000000
Au  5.7785669881  5.0043858101  0.0000000000
Au  8.6678504994  10.0087716508  0.0000000000
Au  11.5571340107  15.0131574916  0.0000000000
Au  11.5571340107  5.0043858101  0.0000000000
Au  14.4464175220  10.0087716508  0.0000000000
Au  17.3357010333  15.0131574916  0.0000000000
Au  17.3357010333  5.0043858101  0.0000000000
Au  20.2249845446  10.0087716508  0.0000000000
Au  23.1142680559  15.0131574916  0.0000000000
Au  7.2232087393  2.5021930109  0.0000000000
Au  10.1124922506  7.5065788517  0.0000000000
Au  13.0017757619  12.5109646924  0.0000000000
Au  13.0017757619  2.5021930109  0.0000000000
Au  15.8910592732  7.5065788517  0.0000000000
Au  18.7803427845  12.5109646924  0.0000000000
Au  18.7803427845  2.5021930109  0.0000000000
Au  21.6696262958  7.5065788517  0.0000000000
Au  24.5589098072  12.5109646924  0.0000000000
Au  4.3339254907  2.5021929496  -0.0000047756
Au  7.2232090020  7.5065787904  -0.0000047756
Au  10.1124925133  12.5109646311  -0.0000047756
Au  10.1124925133  2.5021929496  -0.0000047756
Au  13.0017760246  7.5065787904  -0.0000047756
Au  15.8910595359  12.5109646311  -0.0000047756
Au  15.8910595359  2.5021929496  -0.0000047756
Au  18.7803430472  7.5065787904  -0.0000047756
Au  21.6696265585  12.5109646311  -0.0000047756
Au  5.7785652032  1.6681296056  -2.4657957139
Au  8.6678487145  6.6725154464  -2.4657957139
Au  11.5571322258  11.6769012871  -2.4657957139
Au  11.5571322258  1.6681296056  -2.4657957139
Au  14.4464157371  6.6725154464  -2.4657957139
Au  17.3356992484  11.6769012871  -2.4657957139
Au  17.3356992484  1.6681296056  -2.4657957139
Au  20.2249827597  6.6725154464  -2.4657957139
Au  23.1142662710  11.6769012871  -2.4657957139
Au  2.8892852431  1.6681296056  -2.4657957139
Au  5.7785687544  6.6725154464  -2.4657957139
Au  8.6678522657  11.6769012871  -2.4657957139
Au  8.6678522657  1.6681296056  -2.4657957139
Au  11.5571357770  6.6725154464  -2.4657957139
Au  14.4464192883  11.6769012871  -2.4657957139
Au  14.4464192883  1.6681296056  -2.4657957139
Au  17.3357027996  6.6725154464  -2.4657957139
Au  20.2249863109  11.6769012871  -2.4657957139
Au  4.3339254907  4.1703196472  -2.4657957139
Au  7.2232090020  9.1747054880  -2.4657957139
Au  10.1124925133  14.1790913287  -2.4657957139
Au  10.1124925133  4.1703196472  -2.4657957139
Au  13.0017760246  9.1747054880  -2.4657957139
Au  15.8910595359  14.1790913287  -2.4657957139
Au  15.8910595359  4.1703196472  -2.4657957139
Au  18.7803430472  9.1747054880  -2.4657957139
Au  21.6696265585  14.1790913287  -2.4657957139
Au  7.2232087394  4.1703217480  -2.4657985731
Au  10.1124922507  9.1747075888  -2.4657985731
Au  13.0017757620  14.1790934295  -2.4657985731
Au  13.0017757620  4.1703217480  -2.4657985731
Au  15.8910592733  9.1747075888  -2.4657985731
Au  18.7803427846  14.1790934295  -2.4657985731
Au  18.7803427846  4.1703217480  -2.4657985731
Au  21.6696262959  9.1747075888  -2.4657985731
Au  24.5589098072  14.1790934295  -2.4657985731
Au  1.4446417167  0.8340642796  -4.9086611023
Au  4.3339252280  5.8384501204  -4.9086611023
Au  7.2232087393  10.8428359611  -4.9086611023
Au  7.2232087393  0.8340642796  -4.9086611023
Au  10.1124922506  5.8384501204  -4.9086611023
Au  13.0017757619  10.8428359611  -4.9086611023
Au  13.0017757619  0.8340642796  -4.9086611023
Au  15.8910592732  5.8384501204  -4.9086611023
Au  18.7803427845  10.8428359611  -4.9086611023
Au  4.3339254907  0.8340644371  -4.9086729219
Au  7.2232090020  5.8384502779  -4.9086729219
Au  10.1124925133  10.8428361186  -4.9086729219
Au  10.1124925133  0.8340644371  -4.9086729219
Au  13.0017760246  5.8384502779  -4.9086729219
Au  15.8910595359  10.8428361186  -4.9086729219
Au  15.8910595359  0.8340644371  -4.9086729219
Au  18.7803430472  5.8384502779  -4.9086729219
Au  21.6696265585  10.8428361186  -4.9086729219
Au  2.8892835602  3.3362570414  -4.9086912891
Au  5.7785670715  8.3406428822  -4.9086912891
Au  8.6678505828  13.3450287229  -4.9086912891
Au  8.6678505828  3.3362570414  -4.9086912891
Au  11.5571340941  8.3406428822  -4.9086912891
Au  14.4464176054  13.3450287229  -4.9086912891
Au  14.4464176054  3.3362570414  -4.9086912891
Au  17.3357011167  8.3406428822  -4.9086912891
Au  20.2249846280  13.3450287229  -4.9086912891
Au  5.7785667208  3.3362570414  -4.9087016005
Au  8.6678502321  8.3406428822  -4.9087016005
Au  11.5571337434  13.3450287229  -4.9087016005
Au  11.5571337434  3.3362570414  -4.9087016005
Au  14.4464172547  8.3406428822  -4.9087016005
Au  17.3357007660  13.3450287229  -4.9087016005
Au  17.3357007660  3.3362570414  -4.9087016005
Au  20.2249842773  8.3406428822  -4.9087016005
Au  23.1142677886  13.3450287229  -4.9087016005
Au  0.0000011977  0.0000006915  -7.3676307637
Au  2.8892847090  5.0043865323  -7.3676307637
Au  5.7785682203  10.0087723730  -7.3676307637
Au  5.7785682203  0.0000006915  -7.3676307637
Au  8.6678517316  5.0043865323  -7.3676307637
Au  11.5571352429  10.0087723730  -7.3676307637
Au  11.5571352429  0.0000006915  -7.3676307637
Au  14.4464187542  5.0043865323  -7.3676307637
Au  17.3357022655  10.0087723730  -7.3676307637
Au  2.8892822260  0.0000006915  -7.3676307637
Au  5.7785657373  5.0043865323  -7.3676307637
Au  8.6678492486  10.0087723730  -7.3676307637
Au  8.6678492486  0.0000006915  -7.3676307637
Au  11.5571327599  5.0043865323  -7.3676307637
Au  14.4464162712  10.0087723730  -7.3676307637
Au  14.4464162712  0.0000006915  -7.3676307637
Au  17.3356997825  5.0043865323  -7.3676307637
Au  20.2249832938  10.0087723730  -7.3676307637
Au  1.4446417167  2.5021915666  -7.3676307637
Au  4.3339252280  7.5065774074  -7.3676307637
Au  7.2232087393  12.5109632481  -7.3676307637
Au  7.2232087393  2.5021915666  -7.3676307637
Au  10.1124922506  7.5065774074  -7.3676307637
Au  13.0017757619  12.5109632481  -7.3676307637
Au  13.0017757619  2.5021915666  -7.3676307637
Au  15.8910592732  7.5065774074  -7.3676307637
Au  18.7803427845  12.5109632481  -7.3676307637
Au  4.3339254907  2.5021929496  -7.3676371846
Au  7.2232090020  7.5065787904  -7.3676371846
Au  10.1124925133  12.5109646311  -7.3676371846
Au  10.1124925133  2.5021929496  -7.3676371846
Au  13.0017760246  7.5065787904  -7.3676371846
Au  15.8910595359  12.5109646311  -7.3676371846
Au  15.8910595359  2.5021929496  -7.3676371846
Au  18.7803430472  7.5065787904  -7.3676371846
Au  21.6696265585  12.5109646311  -7.3676371846
